<number of tasks>
20

<cycle time>
1000

<order strength>
0,184


<task times>
1 77
2 133
3 556
4 405
5 138
6 192
7 117
8 337
9 68
10 272
11 83
12 56
13 38
14 114
15 34
16 337
17 51
18 125
19 121
20 37

<precedence relations>
1,5
1,7
4,6
4,8
5,12
5,13
7,11
7,14
7,15
8,9
8,10
9,16
12,17
13,18
16,19
18,20

<end>
